
Gurobi 12.0.1 (win64, Python) logging started Sat Feb  8 00:38:35 2025

Set parameter Username
Set parameter LicenseID to value 2619528
Set parameter LogFile to value "gurobi.log"
Academic license - for non-commercial use only - expires 2026-02-07
